NAME          
ROWS
 N  OBJ
 L  c1
 L  c2
 L  c3
 L  c4
 L  c5
COLUMNS
    MARKER    'MARKER'                 'INTORG'
    x[1]      c1        101
    x[1]      c2        775
    x[1]      c3        941
    x[1]      c4        729
    x[1]      c5        526
    x[1]      OBJ       -279
    x[2]      c1        606
    x[2]      c2        563
    x[2]      c3        22
    x[2]      c4        361
    x[2]      c5        729
    x[2]      OBJ       -807
    x[3]      c1        701
    x[3]      c2        884
    x[3]      c3        301
    x[3]      c4        18
    x[3]      c5        724
    x[3]      OBJ       -345
    x[4]      c1        625
    x[4]      c2        364
    x[4]      c3        49
    x[4]      c4        403
    x[4]      c5        324
    x[4]      OBJ       -662
    x[5]      c1        257
    x[5]      c2        703
    x[5]      c3        242
    x[5]      c4        17
    x[5]      c5        39
    x[5]      OBJ       -255
    x[6]      c1        292
    x[6]      c2        624
    x[6]      c3        113
    x[6]      c4        65
    x[6]      c5        124
    x[6]      OBJ       -133
    x[7]      c1        721
    x[7]      c2        364
    x[7]      c3        890
    x[7]      c4        383
    x[7]      c5        523
    x[7]      OBJ       -224
    x[8]      c1        828
    x[8]      c2        449
    x[8]      c3        170
    x[8]      c4        734
    x[8]      c5        801
    x[8]      OBJ       -838
    x[9]      c1        787
    x[9]      c2        182
    x[9]      c3        407
    x[9]      c4        838
    x[9]      c5        359
    x[9]      OBJ       -365
    x[10]     c1        722
    x[10]     c2        301
    x[10]     c3        284
    x[10]     c4        470
    x[10]     c5        942
    x[10]     OBJ       -66
    x[11]     c1        444
    x[11]     c2        936
    x[11]     c3        274
    x[11]     c4        919
    x[11]     c5        180
    x[11]     OBJ       -824
    x[12]     c1        222
    x[12]     c2        572
    x[12]     c3        405
    x[12]     c4        109
    x[12]     c5        924
    x[12]     OBJ       -411
    x[13]     c1        73
    x[13]     c2        835
    x[13]     c3        323
    x[13]     c4        26
    x[13]     c5        486
    x[13]     OBJ       -428
    x[14]     c1        60
    x[14]     c2        459
    x[14]     c3        960
    x[14]     c4        560
    x[14]     c5        464
    x[14]     OBJ       -523
    x[15]     c1        802
    x[15]     c2        929
    x[15]     c3        672
    x[15]     c4        60
    x[15]     c5        548
    x[15]     OBJ       -874
RHS
    rhs       c1        3620
    rhs       c2        4470
    rhs       c3        3026
    rhs       c4        2846
    rhs       c5        3846
RANGES
BOUNDS
 BV bounds    x[1]
 BV bounds    x[2]
 BV bounds    x[3]
 BV bounds    x[4]
 BV bounds    x[5]
 BV bounds    x[6]
 BV bounds    x[7]
 BV bounds    x[8]
 BV bounds    x[9]
 BV bounds    x[10]
 BV bounds    x[11]
 BV bounds    x[12]
 BV bounds    x[13]
 BV bounds    x[14]
 BV bounds    x[15]
ENDATA
